590.0
588.0
637.0
621.0
642.0
669.0
649.0
578.0
610.0
584.0
599.0
610.0
650.0
605.0
610.0
634.0
663.0
620.0
603.0
622.0
701.0
574.0
586.0
630.0
579.0
587.0
598.0
604.0
656.0
596.0
611.0
649.0
600.0
636.0
582.0
587.0
583.0
670.0
583.0
630.0
584.0
614.0
610.0
653.0
605.0
627.0
611.0
593.0
594.0
609.0
583.0
670.0
641.0
590.0
681.0
634.0
601.0
597.0
587.0
627.0
571.0
612.0
584.0
634.0
673.0
709.0
586.0
674.0
621.0
653.0
642.0
658.0
610.0
660.0
777.0
608.0
602.0
604.0
735.0
592.0
607.0
573.0
621.0
620.0
620.0
570.0
675.0
621.0
612.0
587.0
596.0
636.0
647.0
569.0
630.0
623.0
594.0
595.0
582.0
588.0
